1 43 54 67 68 37 74 50 1 
1 6 79 62 17 44 69 9 38 3 35 1 
1 71 77 51 46 23 5 33 59 1 
1 11 64 63 24 45 13 1 
1 4 40 61 30 75 14 1 
1 18 28 60 31 7 25 12 1 
1 41 22 8 2 1 
1 52 78 47 42 16 34 56 10 55 73 39 1 
1 65 26 20 48 57 70 66 36 27 58 76 21 32 1 
1 72 15 49 19 80 29 53 1 
